
Gurobi 7.0.1 (win64, Java) logging started 04/26/19 15:40:21

Optimize a model with 8 rows, 4 columns and 4 nonzeros
Coefficient statistics:
  Matrix range     [1e+00, 1e+00]
  Objective range  [0e+00, 0e+00]
  Bounds range     [0e+00, 0e+00]
  RHS range        [1e+00, 1e+00]
Iteration    Objective       Primal Inf.    Dual Inf.      Time
       0   -0.0000000e+00   0.000000e+00   0.000000e+00      0s

Solved in 0 iterations and 0.00 seconds
Optimal objective -0.000000000e+00
Optimize a model with 8 rows, 1304 columns and 3680 nonzeros
Coefficient statistics:
  Matrix range     [1e+00, 1e+00]
  Objective range  [6e+04, 4e+05]
  Bounds range     [0e+00, 0e+00]
  RHS range        [1e+00, 1e+00]
Iteration    Objective       Primal Inf.    Dual Inf.      Time
       0    2.6834541e+38   3.676000e+33   2.683454e+08      0s
      16    4.6176495e+05   0.000000e+00   0.000000e+00      0s

Solved in 16 iterations and 0.00 seconds
Optimal objective  4.617649537e+05
Optimize a model with 8 rows, 1396 columns and 3928 nonzeros
Coefficient statistics:
  Matrix range     [1e+00, 1e+00]
  Objective range  [6e+04, 4e+05]
  Bounds range     [0e+00, 0e+00]
  RHS range        [1e+00, 1e+00]
Iteration    Objective       Primal Inf.    Dual Inf.      Time
       0    2.8666458e+35   2.360000e+32   2.866646e+05      0s
       1    4.6176495e+05   0.000000e+00   0.000000e+00      0s

Solved in 1 iterations and 0.00 seconds
Optimal objective  4.617649537e+05
Optimize a model with 8 rows, 1396 columns and 3928 nonzeros
Coefficient statistics:
  Matrix range     [1e+00, 1e+00]
  Objective range  [6e+04, 4e+05]
  Bounds range     [0e+00, 0e+00]
  RHS range        [1e+00, 1e+00]

Solved in 1 iterations and 0.00 seconds
Optimal objective  4.617649537e+05

Gurobi 7.0.1 (win64, Java) logging started 04/26/19 16:17:04

Optimize a model with 8 rows, 4 columns and 4 nonzeros
Coefficient statistics:
  Matrix range     [1e+00, 1e+00]
  Objective range  [0e+00, 0e+00]
  Bounds range     [0e+00, 0e+00]
  RHS range        [1e+00, 1e+00]
Iteration    Objective       Primal Inf.    Dual Inf.      Time
       0   -0.0000000e+00   0.000000e+00   0.000000e+00      0s

Solved in 0 iterations and 0.00 seconds
Optimal objective -0.000000000e+00
Optimize a model with 8 rows, 1304 columns and 3680 nonzeros
Coefficient statistics:
  Matrix range     [1e+00, 1e+00]
  Objective range  [6e+04, 4e+05]
  Bounds range     [0e+00, 0e+00]
  RHS range        [1e+00, 1e+00]
Iteration    Objective       Primal Inf.    Dual Inf.      Time
       0    2.6834541e+38   3.676000e+33   2.683454e+08      0s
      16    4.6176495e+05   0.000000e+00   0.000000e+00      0s

Solved in 16 iterations and 0.00 seconds
Optimal objective  4.617649537e+05
Optimize a model with 8 rows, 1396 columns and 3928 nonzeros
Coefficient statistics:
  Matrix range     [1e+00, 1e+00]
  Objective range  [6e+04, 4e+05]
  Bounds range     [0e+00, 0e+00]
  RHS range        [1e+00, 1e+00]
Iteration    Objective       Primal Inf.    Dual Inf.      Time
       0    2.8666458e+35   2.360000e+32   2.866646e+05      0s
       1    4.6176495e+05   0.000000e+00   0.000000e+00      0s

Solved in 1 iterations and 0.00 seconds
Optimal objective  4.617649537e+05
Optimize a model with 8 rows, 1396 columns and 3928 nonzeros
Coefficient statistics:
  Matrix range     [1e+00, 1e+00]
  Objective range  [6e+04, 4e+05]
  Bounds range     [0e+00, 0e+00]
  RHS range        [1e+00, 1e+00]

Solved in 1 iterations and 0.00 seconds
Optimal objective  4.617649537e+05

Gurobi 7.0.1 (win64, Java) logging started 04/26/19 16:17:21

Optimize a model with 8 rows, 4 columns and 4 nonzeros
Coefficient statistics:
  Matrix range     [1e+00, 1e+00]
  Objective range  [0e+00, 0e+00]
  Bounds range     [0e+00, 0e+00]
  RHS range        [1e+00, 1e+00]
Iteration    Objective       Primal Inf.    Dual Inf.      Time
       0   -0.0000000e+00   0.000000e+00   0.000000e+00      0s

Solved in 0 iterations and 0.00 seconds
Optimal objective -0.000000000e+00
Optimize a model with 8 rows, 1304 columns and 3680 nonzeros
Coefficient statistics:
  Matrix range     [1e+00, 1e+00]
  Objective range  [6e+04, 4e+05]
  Bounds range     [0e+00, 0e+00]
  RHS range        [1e+00, 1e+00]
Iteration    Objective       Primal Inf.    Dual Inf.      Time
       0    2.6834541e+38   3.676000e+33   2.683454e+08      0s
      16    4.6176495e+05   0.000000e+00   0.000000e+00      0s

Solved in 16 iterations and 0.00 seconds
Optimal objective  4.617649537e+05
Optimize a model with 8 rows, 1396 columns and 3928 nonzeros
Coefficient statistics:
  Matrix range     [1e+00, 1e+00]
  Objective range  [6e+04, 4e+05]
  Bounds range     [0e+00, 0e+00]
  RHS range        [1e+00, 1e+00]
Iteration    Objective       Primal Inf.    Dual Inf.      Time
       0    2.8666458e+35   2.360000e+32   2.866646e+05      0s
       1    4.6176495e+05   0.000000e+00   0.000000e+00      0s

Solved in 1 iterations and 0.00 seconds
Optimal objective  4.617649537e+05
Optimize a model with 8 rows, 1396 columns and 3928 nonzeros
Coefficient statistics:
  Matrix range     [1e+00, 1e+00]
  Objective range  [6e+04, 4e+05]
  Bounds range     [0e+00, 0e+00]
  RHS range        [1e+00, 1e+00]

Solved in 1 iterations and 0.00 seconds
Optimal objective  4.617649537e+05

Gurobi 7.0.1 (win64, Java) logging started 04/26/19 16:41:05

Optimize a model with 8 rows, 4 columns and 4 nonzeros
Coefficient statistics:
  Matrix range     [1e+00, 1e+00]
  Objective range  [0e+00, 0e+00]
  Bounds range     [0e+00, 0e+00]
  RHS range        [1e+00, 1e+00]
Iteration    Objective       Primal Inf.    Dual Inf.      Time
       0   -0.0000000e+00   0.000000e+00   0.000000e+00      0s

Solved in 0 iterations and 0.00 seconds
Optimal objective -0.000000000e+00
Optimize a model with 8 rows, 1304 columns and 3680 nonzeros
Coefficient statistics:
  Matrix range     [1e+00, 1e+00]
  Objective range  [6e+04, 4e+05]
  Bounds range     [0e+00, 0e+00]
  RHS range        [1e+00, 1e+00]
Iteration    Objective       Primal Inf.    Dual Inf.      Time
       0    2.6834541e+38   3.676000e+33   2.683454e+08      0s
      16    4.6176495e+05   0.000000e+00   0.000000e+00      0s

Solved in 16 iterations and 0.00 seconds
Optimal objective  4.617649537e+05
Optimize a model with 8 rows, 1396 columns and 3928 nonzeros
Coefficient statistics:
  Matrix range     [1e+00, 1e+00]
  Objective range  [6e+04, 4e+05]
  Bounds range     [0e+00, 0e+00]
  RHS range        [1e+00, 1e+00]
Iteration    Objective       Primal Inf.    Dual Inf.      Time
       0    2.8666458e+35   2.360000e+32   2.866646e+05      0s
       1    4.6176495e+05   0.000000e+00   0.000000e+00      0s

Solved in 1 iterations and 0.00 seconds
Optimal objective  4.617649537e+05
Optimize a model with 8 rows, 1396 columns and 3928 nonzeros
Coefficient statistics:
  Matrix range     [1e+00, 1e+00]
  Objective range  [6e+04, 4e+05]
  Bounds range     [0e+00, 0e+00]
  RHS range        [1e+00, 1e+00]

Solved in 1 iterations and 0.00 seconds
Optimal objective  4.617649537e+05

Gurobi 7.0.1 (win64, Java) logging started 04/26/19 16:54:15

Optimize a model with 8 rows, 4 columns and 4 nonzeros
Coefficient statistics:
  Matrix range     [1e+00, 1e+00]
  Objective range  [0e+00, 0e+00]
  Bounds range     [0e+00, 0e+00]
  RHS range        [1e+00, 1e+00]
Iteration    Objective       Primal Inf.    Dual Inf.      Time
       0   -0.0000000e+00   0.000000e+00   0.000000e+00      0s

Solved in 0 iterations and 0.00 seconds
Optimal objective -0.000000000e+00
Optimize a model with 8 rows, 1304 columns and 3680 nonzeros
Coefficient statistics:
  Matrix range     [1e+00, 1e+00]
  Objective range  [6e+04, 4e+05]
  Bounds range     [0e+00, 0e+00]
  RHS range        [1e+00, 1e+00]
Iteration    Objective       Primal Inf.    Dual Inf.      Time
       0    2.6834541e+38   3.676000e+33   2.683454e+08      0s
      16    4.6176495e+05   0.000000e+00   0.000000e+00      0s

Solved in 16 iterations and 0.00 seconds
Optimal objective  4.617649537e+05

Gurobi 7.0.1 (win64, Java) logging started 04/26/19 16:58:52

Optimize a model with 8 rows, 4 columns and 4 nonzeros
Coefficient statistics:
  Matrix range     [1e+00, 1e+00]
  Objective range  [0e+00, 0e+00]
  Bounds range     [0e+00, 0e+00]
  RHS range        [1e+00, 1e+00]
Iteration    Objective       Primal Inf.    Dual Inf.      Time
       0   -0.0000000e+00   0.000000e+00   0.000000e+00      0s

Solved in 0 iterations and 0.00 seconds
Optimal objective -0.000000000e+00
Optimize a model with 8 rows, 1304 columns and 3680 nonzeros
Coefficient statistics:
  Matrix range     [1e+00, 1e+00]
  Objective range  [6e+04, 4e+05]
  Bounds range     [0e+00, 0e+00]
  RHS range        [1e+00, 1e+00]
Iteration    Objective       Primal Inf.    Dual Inf.      Time
       0    2.6834541e+38   3.676000e+33   2.683454e+08      0s
      16    4.6176495e+05   0.000000e+00   0.000000e+00      0s

Solved in 16 iterations and 0.00 seconds
Optimal objective  4.617649537e+05

Gurobi 7.0.1 (win64, Java) logging started 04/26/19 17:02:02

Optimize a model with 8 rows, 4 columns and 4 nonzeros
Coefficient statistics:
  Matrix range     [1e+00, 1e+00]
  Objective range  [0e+00, 0e+00]
  Bounds range     [0e+00, 0e+00]
  RHS range        [1e+00, 1e+00]
Iteration    Objective       Primal Inf.    Dual Inf.      Time
       0   -0.0000000e+00   0.000000e+00   0.000000e+00      0s

Solved in 0 iterations and 0.00 seconds
Optimal objective -0.000000000e+00
Optimize a model with 8 rows, 1304 columns and 3680 nonzeros
Coefficient statistics:
  Matrix range     [1e+00, 1e+00]
  Objective range  [6e+04, 4e+05]
  Bounds range     [0e+00, 0e+00]
  RHS range        [1e+00, 1e+00]
Iteration    Objective       Primal Inf.    Dual Inf.      Time
       0    2.6834541e+38   3.676000e+33   2.683454e+08      0s
      16    4.6176495e+05   0.000000e+00   0.000000e+00      0s

Solved in 16 iterations and 0.00 seconds
Optimal objective  4.617649537e+05

Gurobi 7.0.1 (win64, Java) logging started 04/26/19 17:02:36

Optimize a model with 8 rows, 4 columns and 4 nonzeros
Coefficient statistics:
  Matrix range     [1e+00, 1e+00]
  Objective range  [0e+00, 0e+00]
  Bounds range     [0e+00, 0e+00]
  RHS range        [1e+00, 1e+00]
Iteration    Objective       Primal Inf.    Dual Inf.      Time
       0   -0.0000000e+00   0.000000e+00   0.000000e+00      0s

Solved in 0 iterations and 0.00 seconds
Optimal objective -0.000000000e+00
Optimize a model with 8 rows, 1304 columns and 3680 nonzeros
Coefficient statistics:
  Matrix range     [1e+00, 1e+00]
  Objective range  [6e+04, 4e+05]
  Bounds range     [0e+00, 0e+00]
  RHS range        [1e+00, 1e+00]
Iteration    Objective       Primal Inf.    Dual Inf.      Time
       0    2.6834541e+38   3.676000e+33   2.683454e+08      0s
      16    4.6176495e+05   0.000000e+00   0.000000e+00      0s

Solved in 16 iterations and 0.00 seconds
Optimal objective  4.617649537e+05

Gurobi 7.0.1 (win64, Java) logging started 04/26/19 17:02:50

Optimize a model with 8 rows, 4 columns and 4 nonzeros
Coefficient statistics:
  Matrix range     [1e+00, 1e+00]
  Objective range  [0e+00, 0e+00]
  Bounds range     [0e+00, 0e+00]
  RHS range        [1e+00, 1e+00]
Iteration    Objective       Primal Inf.    Dual Inf.      Time
       0   -0.0000000e+00   0.000000e+00   0.000000e+00      0s

Solved in 0 iterations and 0.00 seconds
Optimal objective -0.000000000e+00
Optimize a model with 8 rows, 1304 columns and 3680 nonzeros
Coefficient statistics:
  Matrix range     [1e+00, 1e+00]
  Objective range  [6e+04, 4e+05]
  Bounds range     [0e+00, 0e+00]
  RHS range        [1e+00, 1e+00]
Iteration    Objective       Primal Inf.    Dual Inf.      Time
       0    2.6834541e+38   3.676000e+33   2.683454e+08      0s
      16    4.6176495e+05   0.000000e+00   0.000000e+00      0s

Solved in 16 iterations and 0.00 seconds
Optimal objective  4.617649537e+05

Gurobi 7.0.1 (win64, Java) logging started 04/26/19 17:04:38

Optimize a model with 8 rows, 4 columns and 4 nonzeros
Coefficient statistics:
  Matrix range     [1e+00, 1e+00]
  Objective range  [0e+00, 0e+00]
  Bounds range     [0e+00, 0e+00]
  RHS range        [1e+00, 1e+00]
Iteration    Objective       Primal Inf.    Dual Inf.      Time
       0   -0.0000000e+00   0.000000e+00   0.000000e+00      0s

Solved in 0 iterations and 0.00 seconds
Optimal objective -0.000000000e+00
Optimize a model with 8 rows, 1304 columns and 3680 nonzeros
Coefficient statistics:
  Matrix range     [1e+00, 1e+00]
  Objective range  [6e+04, 4e+05]
  Bounds range     [0e+00, 0e+00]
  RHS range        [1e+00, 1e+00]
Iteration    Objective       Primal Inf.    Dual Inf.      Time
       0    2.6834541e+38   3.676000e+33   2.683454e+08      0s
      16    4.6176495e+05   0.000000e+00   0.000000e+00      0s

Solved in 16 iterations and 0.00 seconds
Optimal objective  4.617649537e+05

Gurobi 7.0.1 (win64, Java) logging started 04/26/19 17:05:35

Optimize a model with 8 rows, 4 columns and 4 nonzeros
Coefficient statistics:
  Matrix range     [1e+00, 1e+00]
  Objective range  [0e+00, 0e+00]
  Bounds range     [0e+00, 0e+00]
  RHS range        [1e+00, 1e+00]
Iteration    Objective       Primal Inf.    Dual Inf.      Time
       0   -0.0000000e+00   0.000000e+00   0.000000e+00      0s

Solved in 0 iterations and 0.00 seconds
Optimal objective -0.000000000e+00
Optimize a model with 8 rows, 1304 columns and 3680 nonzeros
Coefficient statistics:
  Matrix range     [1e+00, 1e+00]
  Objective range  [6e+04, 4e+05]
  Bounds range     [0e+00, 0e+00]
  RHS range        [1e+00, 1e+00]
Iteration    Objective       Primal Inf.    Dual Inf.      Time
       0    2.6834541e+38   3.676000e+33   2.683454e+08      0s
      16    4.6176495e+05   0.000000e+00   0.000000e+00      0s

Solved in 16 iterations and 0.00 seconds
Optimal objective  4.617649537e+05

Gurobi 7.0.1 (win64, Java) logging started 04/26/19 17:06:09

Optimize a model with 8 rows, 4 columns and 4 nonzeros
Coefficient statistics:
  Matrix range     [1e+00, 1e+00]
  Objective range  [0e+00, 0e+00]
  Bounds range     [0e+00, 0e+00]
  RHS range        [1e+00, 1e+00]
Iteration    Objective       Primal Inf.    Dual Inf.      Time
       0   -0.0000000e+00   0.000000e+00   0.000000e+00      0s

Solved in 0 iterations and 0.00 seconds
Optimal objective -0.000000000e+00
Optimize a model with 8 rows, 1304 columns and 3680 nonzeros
Coefficient statistics:
  Matrix range     [1e+00, 1e+00]
  Objective range  [6e+04, 4e+05]
  Bounds range     [0e+00, 0e+00]
  RHS range        [1e+00, 1e+00]
Iteration    Objective       Primal Inf.    Dual Inf.      Time
       0    2.6834541e+38   3.676000e+33   2.683454e+08      0s
      16    4.6176495e+05   0.000000e+00   0.000000e+00      0s

Solved in 16 iterations and 0.00 seconds
Optimal objective  4.617649537e+05

Gurobi 7.0.1 (win64, Java) logging started 04/26/19 17:07:07

Optimize a model with 8 rows, 4 columns and 4 nonzeros
Coefficient statistics:
  Matrix range     [1e+00, 1e+00]
  Objective range  [0e+00, 0e+00]
  Bounds range     [0e+00, 0e+00]
  RHS range        [1e+00, 1e+00]
Iteration    Objective       Primal Inf.    Dual Inf.      Time
       0   -0.0000000e+00   0.000000e+00   0.000000e+00      0s

Solved in 0 iterations and 0.00 seconds
Optimal objective -0.000000000e+00
Optimize a model with 8 rows, 1304 columns and 3680 nonzeros
Coefficient statistics:
  Matrix range     [1e+00, 1e+00]
  Objective range  [6e+04, 4e+05]
  Bounds range     [0e+00, 0e+00]
  RHS range        [1e+00, 1e+00]
Iteration    Objective       Primal Inf.    Dual Inf.      Time
       0    2.6834541e+38   3.676000e+33   2.683454e+08      0s
      16    4.6176495e+05   0.000000e+00   0.000000e+00      0s

Solved in 16 iterations and 0.00 seconds
Optimal objective  4.617649537e+05

Gurobi 7.0.1 (win64, Java) logging started 04/26/19 17:13:16

Optimize a model with 8 rows, 4 columns and 4 nonzeros
Coefficient statistics:
  Matrix range     [1e+00, 1e+00]
  Objective range  [0e+00, 0e+00]
  Bounds range     [0e+00, 0e+00]
  RHS range        [1e+00, 1e+00]
Iteration    Objective       Primal Inf.    Dual Inf.      Time
       0   -0.0000000e+00   0.000000e+00   0.000000e+00      0s

Solved in 0 iterations and 0.00 seconds
Optimal objective -0.000000000e+00
Optimize a model with 8 rows, 1304 columns and 3680 nonzeros
Coefficient statistics:
  Matrix range     [1e+00, 1e+00]
  Objective range  [6e+04, 4e+05]
  Bounds range     [0e+00, 0e+00]
  RHS range        [1e+00, 1e+00]
Iteration    Objective       Primal Inf.    Dual Inf.      Time
       0    2.6834541e+38   3.676000e+33   2.683454e+08      0s
      16    4.6176495e+05   0.000000e+00   0.000000e+00      0s

Solved in 16 iterations and 0.00 seconds
Optimal objective  4.617649537e+05

Gurobi 7.0.1 (win64, Java) logging started 04/26/19 17:13:33

Optimize a model with 8 rows, 4 columns and 4 nonzeros
Coefficient statistics:
  Matrix range     [1e+00, 1e+00]
  Objective range  [0e+00, 0e+00]
  Bounds range     [0e+00, 0e+00]
  RHS range        [1e+00, 1e+00]
Iteration    Objective       Primal Inf.    Dual Inf.      Time
       0   -0.0000000e+00   0.000000e+00   0.000000e+00      0s

Solved in 0 iterations and 0.00 seconds
Optimal objective -0.000000000e+00
Optimize a model with 8 rows, 1304 columns and 3680 nonzeros
Coefficient statistics:
  Matrix range     [1e+00, 1e+00]
  Objective range  [6e+04, 4e+05]
  Bounds range     [0e+00, 0e+00]
  RHS range        [1e+00, 1e+00]
Iteration    Objective       Primal Inf.    Dual Inf.      Time
       0    2.6834541e+38   3.676000e+33   2.683454e+08      0s
      16    4.6176495e+05   0.000000e+00   0.000000e+00      0s

Solved in 16 iterations and 0.00 seconds
Optimal objective  4.617649537e+05

Gurobi 7.0.1 (win64, Java) logging started 04/26/19 17:14:22

Optimize a model with 8 rows, 4 columns and 4 nonzeros
Coefficient statistics:
  Matrix range     [1e+00, 1e+00]
  Objective range  [0e+00, 0e+00]
  Bounds range     [0e+00, 0e+00]
  RHS range        [1e+00, 1e+00]
Iteration    Objective       Primal Inf.    Dual Inf.      Time
       0   -0.0000000e+00   0.000000e+00   0.000000e+00      0s

Solved in 0 iterations and 0.00 seconds
Optimal objective -0.000000000e+00
Optimize a model with 8 rows, 1304 columns and 3680 nonzeros
Coefficient statistics:
  Matrix range     [1e+00, 1e+00]
  Objective range  [6e+04, 4e+05]
  Bounds range     [0e+00, 0e+00]
  RHS range        [1e+00, 1e+00]
Iteration    Objective       Primal Inf.    Dual Inf.      Time
       0    2.6834541e+38   3.676000e+33   2.683454e+08      0s
      16    4.6176495e+05   0.000000e+00   0.000000e+00      0s

Solved in 16 iterations and 0.00 seconds
Optimal objective  4.617649537e+05

Gurobi 7.0.1 (win64, Java) logging started 04/26/19 17:14:49

Optimize a model with 8 rows, 4 columns and 4 nonzeros
Coefficient statistics:
  Matrix range     [1e+00, 1e+00]
  Objective range  [0e+00, 0e+00]
  Bounds range     [0e+00, 0e+00]
  RHS range        [1e+00, 1e+00]
Iteration    Objective       Primal Inf.    Dual Inf.      Time
       0   -0.0000000e+00   0.000000e+00   0.000000e+00      0s

Solved in 0 iterations and 0.00 seconds
Optimal objective -0.000000000e+00
Optimize a model with 8 rows, 1304 columns and 3680 nonzeros
Coefficient statistics:
  Matrix range     [1e+00, 1e+00]
  Objective range  [6e+04, 4e+05]
  Bounds range     [0e+00, 0e+00]
  RHS range        [1e+00, 1e+00]
Iteration    Objective       Primal Inf.    Dual Inf.      Time
       0    2.6834541e+38   3.676000e+33   2.683454e+08      0s
      16    4.6176495e+05   0.000000e+00   0.000000e+00      0s

Solved in 16 iterations and 0.00 seconds
Optimal objective  4.617649537e+05

Gurobi 7.0.1 (win64, Java) logging started 04/26/19 17:15:11

Optimize a model with 8 rows, 4 columns and 4 nonzeros
Coefficient statistics:
  Matrix range     [1e+00, 1e+00]
  Objective range  [0e+00, 0e+00]
  Bounds range     [0e+00, 0e+00]
  RHS range        [1e+00, 1e+00]
Iteration    Objective       Primal Inf.    Dual Inf.      Time
       0   -0.0000000e+00   0.000000e+00   0.000000e+00      0s

Solved in 0 iterations and 0.00 seconds
Optimal objective -0.000000000e+00
Optimize a model with 8 rows, 1304 columns and 3680 nonzeros
Coefficient statistics:
  Matrix range     [1e+00, 1e+00]
  Objective range  [6e+04, 4e+05]
  Bounds range     [0e+00, 0e+00]
  RHS range        [1e+00, 1e+00]
Iteration    Objective       Primal Inf.    Dual Inf.      Time
       0    2.6834541e+38   3.676000e+33   2.683454e+08      0s
      16    4.6176495e+05   0.000000e+00   0.000000e+00      0s

Solved in 16 iterations and 0.00 seconds
Optimal objective  4.617649537e+05

Gurobi 7.0.1 (win64, Java) logging started 04/26/19 17:17:57

Optimize a model with 8 rows, 4 columns and 4 nonzeros
Coefficient statistics:
  Matrix range     [1e+00, 1e+00]
  Objective range  [0e+00, 0e+00]
  Bounds range     [0e+00, 0e+00]
  RHS range        [1e+00, 1e+00]
Iteration    Objective       Primal Inf.    Dual Inf.      Time
       0   -0.0000000e+00   0.000000e+00   0.000000e+00      0s

Solved in 0 iterations and 0.00 seconds
Optimal objective -0.000000000e+00
Optimize a model with 8 rows, 1304 columns and 3680 nonzeros
Coefficient statistics:
  Matrix range     [1e+00, 1e+00]
  Objective range  [6e+04, 4e+05]
  Bounds range     [0e+00, 0e+00]
  RHS range        [1e+00, 1e+00]
Iteration    Objective       Primal Inf.    Dual Inf.      Time
       0    2.6834541e+38   3.676000e+33   2.683454e+08      0s
      16    4.6176495e+05   0.000000e+00   0.000000e+00      0s

Solved in 16 iterations and 0.00 seconds
Optimal objective  4.617649537e+05

Gurobi 7.0.1 (win64, Java) logging started 04/26/19 17:18:30

Optimize a model with 8 rows, 4 columns and 4 nonzeros
Coefficient statistics:
  Matrix range     [1e+00, 1e+00]
  Objective range  [0e+00, 0e+00]
  Bounds range     [0e+00, 0e+00]
  RHS range        [1e+00, 1e+00]
Iteration    Objective       Primal Inf.    Dual Inf.      Time
       0   -0.0000000e+00   0.000000e+00   0.000000e+00      0s

Solved in 0 iterations and 0.00 seconds
Optimal objective -0.000000000e+00
Optimize a model with 8 rows, 1304 columns and 3680 nonzeros
Coefficient statistics:
  Matrix range     [1e+00, 1e+00]
  Objective range  [6e+04, 4e+05]
  Bounds range     [0e+00, 0e+00]
  RHS range        [1e+00, 1e+00]
Iteration    Objective       Primal Inf.    Dual Inf.      Time
       0    2.6834541e+38   3.676000e+33   2.683454e+08      0s
      16    4.6176495e+05   0.000000e+00   0.000000e+00      0s

Solved in 16 iterations and 0.00 seconds
Optimal objective  4.617649537e+05

Gurobi 7.0.1 (win64, Java) logging started 04/26/19 17:19:46

Optimize a model with 8 rows, 4 columns and 4 nonzeros
Coefficient statistics:
  Matrix range     [1e+00, 1e+00]
  Objective range  [0e+00, 0e+00]
  Bounds range     [0e+00, 0e+00]
  RHS range        [1e+00, 1e+00]
Iteration    Objective       Primal Inf.    Dual Inf.      Time
       0   -0.0000000e+00   0.000000e+00   0.000000e+00      0s

Solved in 0 iterations and 0.00 seconds
Optimal objective -0.000000000e+00
Optimize a model with 8 rows, 1304 columns and 3680 nonzeros
Coefficient statistics:
  Matrix range     [1e+00, 1e+00]
  Objective range  [6e+04, 4e+05]
  Bounds range     [0e+00, 0e+00]
  RHS range        [1e+00, 1e+00]
Iteration    Objective       Primal Inf.    Dual Inf.      Time
       0    2.6834541e+38   3.676000e+33   2.683454e+08      0s
      16    4.6176495e+05   0.000000e+00   0.000000e+00      0s

Solved in 16 iterations and 0.00 seconds
Optimal objective  4.617649537e+05

Gurobi 7.0.1 (win64, Java) logging started 04/26/19 17:20:20

Optimize a model with 8 rows, 4 columns and 4 nonzeros
Coefficient statistics:
  Matrix range     [1e+00, 1e+00]
  Objective range  [0e+00, 0e+00]
  Bounds range     [0e+00, 0e+00]
  RHS range        [1e+00, 1e+00]
Iteration    Objective       Primal Inf.    Dual Inf.      Time
       0   -0.0000000e+00   0.000000e+00   0.000000e+00      0s

Solved in 0 iterations and 0.00 seconds
Optimal objective -0.000000000e+00
Optimize a model with 8 rows, 1304 columns and 3680 nonzeros
Coefficient statistics:
  Matrix range     [1e+00, 1e+00]
  Objective range  [6e+04, 4e+05]
  Bounds range     [0e+00, 0e+00]
  RHS range        [1e+00, 1e+00]
Iteration    Objective       Primal Inf.    Dual Inf.      Time
       0    2.6834541e+38   3.676000e+33   2.683454e+08      0s
      16    4.6176495e+05   0.000000e+00   0.000000e+00      0s

Solved in 16 iterations and 0.00 seconds
Optimal objective  4.617649537e+05

Gurobi 7.0.1 (win64, Java) logging started 04/26/19 17:21:10

Optimize a model with 8 rows, 4 columns and 4 nonzeros
Coefficient statistics:
  Matrix range     [1e+00, 1e+00]
  Objective range  [0e+00, 0e+00]
  Bounds range     [0e+00, 0e+00]
  RHS range        [1e+00, 1e+00]
Iteration    Objective       Primal Inf.    Dual Inf.      Time
       0   -0.0000000e+00   0.000000e+00   0.000000e+00      0s

Solved in 0 iterations and 0.00 seconds
Optimal objective -0.000000000e+00
Optimize a model with 8 rows, 1304 columns and 3680 nonzeros
Coefficient statistics:
  Matrix range     [1e+00, 1e+00]
  Objective range  [6e+04, 4e+05]
  Bounds range     [0e+00, 0e+00]
  RHS range        [1e+00, 1e+00]
Iteration    Objective       Primal Inf.    Dual Inf.      Time
       0    2.6834541e+38   3.676000e+33   2.683454e+08      0s
      16    4.6176495e+05   0.000000e+00   0.000000e+00      0s

Solved in 16 iterations and 0.00 seconds
Optimal objective  4.617649537e+05

Gurobi 7.0.1 (win64, Java) logging started 04/26/19 17:22:23

Optimize a model with 8 rows, 4 columns and 4 nonzeros
Coefficient statistics:
  Matrix range     [1e+00, 1e+00]
  Objective range  [0e+00, 0e+00]
  Bounds range     [0e+00, 0e+00]
  RHS range        [1e+00, 1e+00]
Iteration    Objective       Primal Inf.    Dual Inf.      Time
       0   -0.0000000e+00   0.000000e+00   0.000000e+00      0s

Solved in 0 iterations and 0.00 seconds
Optimal objective -0.000000000e+00
Optimize a model with 8 rows, 1304 columns and 3680 nonzeros
Coefficient statistics:
  Matrix range     [1e+00, 1e+00]
  Objective range  [6e+04, 4e+05]
  Bounds range     [0e+00, 0e+00]
  RHS range        [1e+00, 1e+00]
Iteration    Objective       Primal Inf.    Dual Inf.      Time
       0    2.6834541e+38   3.676000e+33   2.683454e+08      0s
      16    4.6176495e+05   0.000000e+00   0.000000e+00      0s

Solved in 16 iterations and 0.00 seconds
Optimal objective  4.617649537e+05

Gurobi 7.0.1 (win64, Java) logging started 04/26/19 17:23:08

Optimize a model with 8 rows, 4 columns and 4 nonzeros
Coefficient statistics:
  Matrix range     [1e+00, 1e+00]
  Objective range  [0e+00, 0e+00]
  Bounds range     [0e+00, 0e+00]
  RHS range        [1e+00, 1e+00]
Iteration    Objective       Primal Inf.    Dual Inf.      Time
       0   -0.0000000e+00   0.000000e+00   0.000000e+00      0s

Solved in 0 iterations and 0.00 seconds
Optimal objective -0.000000000e+00
Optimize a model with 8 rows, 1304 columns and 3680 nonzeros
Coefficient statistics:
  Matrix range     [1e+00, 1e+00]
  Objective range  [6e+04, 4e+05]
  Bounds range     [0e+00, 0e+00]
  RHS range        [1e+00, 1e+00]
Iteration    Objective       Primal Inf.    Dual Inf.      Time
       0    2.6834541e+38   3.676000e+33   2.683454e+08      0s
      16    4.6176495e+05   0.000000e+00   0.000000e+00      0s

Solved in 16 iterations and 0.00 seconds
Optimal objective  4.617649537e+05

Gurobi 7.0.1 (win64, Java) logging started 04/26/19 17:24:33

Optimize a model with 8 rows, 4 columns and 4 nonzeros
Coefficient statistics:
  Matrix range     [1e+00, 1e+00]
  Objective range  [0e+00, 0e+00]
  Bounds range     [0e+00, 0e+00]
  RHS range        [1e+00, 1e+00]
Iteration    Objective       Primal Inf.    Dual Inf.      Time
       0   -0.0000000e+00   0.000000e+00   0.000000e+00      0s

Solved in 0 iterations and 0.00 seconds
Optimal objective -0.000000000e+00
Optimize a model with 8 rows, 1304 columns and 3680 nonzeros
Coefficient statistics:
  Matrix range     [1e+00, 1e+00]
  Objective range  [6e+04, 4e+05]
  Bounds range     [0e+00, 0e+00]
  RHS range        [1e+00, 1e+00]
Iteration    Objective       Primal Inf.    Dual Inf.      Time
       0    2.6834541e+38   3.676000e+33   2.683454e+08      0s
      16    4.6176495e+05   0.000000e+00   0.000000e+00      0s

Solved in 16 iterations and 0.00 seconds
Optimal objective  4.617649537e+05

Gurobi 7.0.1 (win64, Java) logging started 04/26/19 17:24:45

Optimize a model with 8 rows, 4 columns and 4 nonzeros
Coefficient statistics:
  Matrix range     [1e+00, 1e+00]
  Objective range  [0e+00, 0e+00]
  Bounds range     [0e+00, 0e+00]
  RHS range        [1e+00, 1e+00]
Iteration    Objective       Primal Inf.    Dual Inf.      Time
       0   -0.0000000e+00   0.000000e+00   0.000000e+00      0s

Solved in 0 iterations and 0.00 seconds
Optimal objective -0.000000000e+00
Optimize a model with 8 rows, 1304 columns and 3680 nonzeros
Coefficient statistics:
  Matrix range     [1e+00, 1e+00]
  Objective range  [6e+04, 4e+05]
  Bounds range     [0e+00, 0e+00]
  RHS range        [1e+00, 1e+00]
Iteration    Objective       Primal Inf.    Dual Inf.      Time
       0    2.6834541e+38   3.676000e+33   2.683454e+08      0s
      16    4.6176495e+05   0.000000e+00   0.000000e+00      0s

Solved in 16 iterations and 0.00 seconds
Optimal objective  4.617649537e+05

Gurobi 7.0.1 (win64, Java) logging started 04/26/19 17:24:51

Optimize a model with 8 rows, 4 columns and 4 nonzeros
Coefficient statistics:
  Matrix range     [1e+00, 1e+00]
  Objective range  [0e+00, 0e+00]
  Bounds range     [0e+00, 0e+00]
  RHS range        [1e+00, 1e+00]
Iteration    Objective       Primal Inf.    Dual Inf.      Time
       0   -0.0000000e+00   0.000000e+00   0.000000e+00      0s

Solved in 0 iterations and 0.00 seconds
Optimal objective -0.000000000e+00
Optimize a model with 8 rows, 1304 columns and 3680 nonzeros
Coefficient statistics:
  Matrix range     [1e+00, 1e+00]
  Objective range  [6e+04, 4e+05]
  Bounds range     [0e+00, 0e+00]
  RHS range        [1e+00, 1e+00]
Iteration    Objective       Primal Inf.    Dual Inf.      Time
       0    2.6834541e+38   3.676000e+33   2.683454e+08      0s
      16    4.6176495e+05   0.000000e+00   0.000000e+00      0s

Solved in 16 iterations and 0.00 seconds
Optimal objective  4.617649537e+05

Gurobi 7.0.1 (win64, Java) logging started 04/26/19 17:25:56

Optimize a model with 8 rows, 4 columns and 4 nonzeros
Coefficient statistics:
  Matrix range     [1e+00, 1e+00]
  Objective range  [0e+00, 0e+00]
  Bounds range     [0e+00, 0e+00]
  RHS range        [1e+00, 1e+00]
Iteration    Objective       Primal Inf.    Dual Inf.      Time
       0   -0.0000000e+00   0.000000e+00   0.000000e+00      0s

Solved in 0 iterations and 0.00 seconds
Optimal objective -0.000000000e+00
Optimize a model with 8 rows, 1304 columns and 3680 nonzeros
Coefficient statistics:
  Matrix range     [1e+00, 1e+00]
  Objective range  [6e+04, 4e+05]
  Bounds range     [0e+00, 0e+00]
  RHS range        [1e+00, 1e+00]
Iteration    Objective       Primal Inf.    Dual Inf.      Time
       0    2.6834541e+38   3.676000e+33   2.683454e+08      0s
      16    4.6176495e+05   0.000000e+00   0.000000e+00      0s

Solved in 16 iterations and 0.00 seconds
Optimal objective  4.617649537e+05
Optimize a model with 8 rows, 1396 columns and 3928 nonzeros
Coefficient statistics:
  Matrix range     [1e+00, 1e+00]
  Objective range  [6e+04, 4e+05]
  Bounds range     [0e+00, 0e+00]
  RHS range        [1e+00, 1e+00]
Iteration    Objective       Primal Inf.    Dual Inf.      Time
       0    2.8666458e+35   2.360000e+32   2.866646e+05      0s
       1    4.6176495e+05   0.000000e+00   0.000000e+00      0s

Solved in 1 iterations and 0.00 seconds
Optimal objective  4.617649537e+05
Optimize a model with 8 rows, 1396 columns and 3928 nonzeros
Coefficient statistics:
  Matrix range     [1e+00, 1e+00]
  Objective range  [6e+04, 4e+05]
  Bounds range     [0e+00, 0e+00]
  RHS range        [1e+00, 1e+00]

Solved in 1 iterations and 0.00 seconds
Optimal objective  4.617649537e+05
